NAME : XML100_3135_21
DIMENSION : 101
NB_CLUSTERS : 5
CLUSTERING_ALG : KMedoids
CLUSTERING_PARAMS : k(4)
CLUSTERS
1 0
2 4 9 13 18 20 23 26 27 29 33 37 42 45 48 55 57 61 67 74 76 84 88 90 92 100
3 3 12 16 28 35 36 38 39 41 46 49 54 56 58 62 66 72 75 81 82 83 85 91 93 95
4 1 2 5 14 15 25 30 31 32 40 43 44 47 51 60 63 73 78 79 80 94 96 97 99
5 6 7 8 10 11 17 19 21 22 24 34 50 52 53 59 64 65 68 69 70 71 77 86 87 89 98
EOF